s td 30 11 40
b 1 5 7 30
b 2 6 27 35
b 3 12 35 39
b 4 2 24 36
b 5 17 21 31 40
b 6 16 20 24 26
b 7 4 27 35 39
b 8 1 9 11 16 22 24 33 37 39 40
b 9 4 7 9 11 16 22 24 33 37 39 40
b 10 7 11 22 24 32 33 39 40
b 11 7 11 13 22 24 32 40
b 12 2 7 13 24 32 40
b 13 4 7 9 11 22 33 37 38 39 40
b 14 4 9 11 22 27 33 38 39 40
b 15 8 9 22 27 33 38 40
b 16 3 8 22 27 38 40
b 17 9 11 21 22 27 38 40
b 18 9 11 21 27 31 40
b 19 4 7 9 28 37 38
b 20 10 28 37 38
b 21 4 7 9 16 22 24 30 37 39
b 22 4 16 30 34 37 39
b 23 25 30 34 37 39
b 24 1 9 11 15 16 22 24 33 37 40
b 25 14 15 16 22 33 40
b 26 14 15 16 19 40
b 27 14 15 22 23
b 28 1 9 11 15 16 20 24 37
b 29 1 9 11 18 20 37
b 30 29
1 21
1 30
2 7
3 7
4 12
5 18
6 28
7 14
8 9
8 24
9 10
9 13
9 21
10 11
11 12
13 14
13 19
14 15
14 17
15 16
17 18
19 20
21 22
22 23
24 25
24 28
25 26
25 27
28 29
